language Essence 1.3

letting codeWordLength be 45
letting dist be
        function((1, 1) --> 0, (1, 2) --> 0, (1, 3) --> 3, (1, 4) --> 2, (1, 5) --> 2, (1, 6) --> 0, (2, 1) --> 0,
                 (2, 2) --> 0, (2, 3) --> 1, (2, 4) --> 2, (2, 5) --> 0, (2, 6) --> 3, (3, 1) --> 3, (3, 2) --> 1,
                 (3, 3) --> 0, (3, 4) --> 0, (3, 5) --> 2, (3, 6) --> 1, (4, 1) --> 2, (4, 2) --> 2, (4, 3) --> 0,
                 (4, 4) --> 0, (4, 5) --> 0, (4, 6) --> 1, (5, 1) --> 2, (5, 2) --> 0, (5, 3) --> 2, (5, 4) --> 0,
                 (5, 5) --> 0, (5, 6) --> 3, (6, 1) --> 0, (6, 2) --> 3, (6, 3) --> 1, (6, 4) --> 1, (6, 5) --> 3,
                 (6, 6) --> 0)
letting maxDist be 3
letting minDist be 41
letting nbCharacter be 6
letting numOfCodeWords be 11
